1115462
1 21 6578
21 10 5744
10 11 5506
11 35 5412
35 2 10541
2 27 15287
27 18 12605
18 40 18404
40 19 13572
19 4 26532
4 22 23621
22 13 39393
13 28 6411
28 31 12751
31 25 7859
25 39 4093
39 30 6375
30 37 941
37 26 14545
26 33 15457
33 12 3966
12 32 37145
32 5 3289
5 20 27356
20 23 33856
23 38 7448
38 29 744
29 36 16894
36 7 11793
7 6 28722
6 8 34947
8 15 26226
15 16 36815
16 17 43848
17 14 42390
14 3 30026
3 9 153162
9 34 90444
34 24 120117
24 1 114647
